NAME : local_0
TYPE : ATSP
DIMENSION : 8
EDGE_WEIGHT_TYPE : EXPLICIT
EDGE_WEIGHT_FORMAT : FULL_MATRIX
EDGE_WEIGHT_SECTION
0 10000000 377 806 898 567 370 525 
0 0 10000000 643 502 10000000 10000000 10000000 
0 10000000 0 10000000 10000000 877 233 829 
0 643 10000000 0 142 550 10000000 556 
0 502 10000000 142 0 640 10000000 660 
0 10000000 872 550 640 0 890 242 
0 10000000 233 10000000 10000000 890 0 842 
0 10000000 10000000 10000000 10000000 10000000 10000000 0 
EOF